p cnf 14 23
14 13 2 0
-14 11 -5 0
-14 11 1 0
14 10 9 0
13 -11 -10 0
13 -11 9 0
-12 10 5 0
-12 9 -6 0
12 -5 -2 0
11 -9 5 0
11 9 -1 0
-10 -9 -3 0
10 9 -2 0
10 4 -2 0
-9 8 2 0
-9 -7 3 0
9 -6 3 0
-9 -4 -2 0
-8 -6 -5 0
8 -6 -5 0
-7 4 3 0
7 4 1 0
-5 4 1 0
